\ LP format - for model browsing. Use MPS format to capture full model detail.
Minimize
  5 x0 - 4 x1 + 5 x2
Subject To
 constr(0): 4 x0 + x1 - 5 x2 >= -0
 constr(1): - x0 + 4 x1 + 3 x2 <= 9
 constr(2): 4 x0 - 2 x1 - 4 x2 >= -0
Bounds
 x0 <= 4
 x1 <= 4
 x2 <= 3
End
